% number of games is 130
num = 130;
cap = 5;
refill = 2;
fun = [-7, -13, 0, 5, 8, 14, 16, 0, 4, 17, -6, -8, -18, -3, -1, -7, -10, -20, 14, -20, 3, 15, 15, 5, -17, -11, 18, 13, 5, 1, -20, 5, -9, 8, -3, -10, 8, 10, -18, -19, -7, -10, 18, 17, -17, -14, -18, 9, 16, -16, -11, -17, -9, -14, -16, 14, -2, 17, 1, 0, -20, 2, -5, 10, 8, -6, -6, -11, 12, 0, -10, 7, -9, 3, 3, -17, 17, -1, 13, -6, 7, 6, 12, -9, -2, -3, -6, -1, 0, 4, -17, 5, 4, 13, -10, 10, 12, 13, -12, -5, -16, 16, 0, -1, 7, 5, -17, -16, 9, -20, 14, 12, -8, -14, 6, 5, -14, -17, 2, -20, -8, 20, -19, 1, -15, -14, -16, -5, -20, 17];
